Version identifier: 22.1.0.0 | 2022-03-09 | 1a383f8ce
CPXPARAM_Threads                                 1
CPXPARAM_MIP_Strategy_VariableSelect             3
CPXPARAM_TimeLimit                               599.999992443
1 of 1 MIP starts provided solutions.
MIP start 'm1' defined initial solution with objective 382.0000.
Tried aggregator 1 time.
MIP Presolve eliminated 16 rows and 382 columns.
MIP Presolve modified 5 coefficients.
Reduced MIP has 3051 rows, 4202 columns, and 50540 nonzeros.
Reduced MIP has 4202 binaries, 0 generals, 0 SOSs, and 0 indicators.
Presolve time = 0.04 sec. (27.64 ticks)
Probing time = 0.00 sec. (3.28 ticks)
Tried aggregator 1 time.
Detecting symmetries...
Reduced MIP has 3051 rows, 4202 columns, and 50540 nonzeros.
Reduced MIP has 4202 binaries, 0 generals, 0 SOSs, and 0 indicators.
Presolve time = 0.04 sec. (29.34 ticks)
Probing time = 0.00 sec. (3.28 ticks)
Clique table members: 1899.
MIP emphasis: balance optimality and feasibility.
MIP search method: dynamic search.
Parallel mode: none, using 1 thread.
Root relaxation solution time = 0.01 sec. (7.95 ticks)

        Nodes                                         Cuts/
   Node  Left     Objective  IInf  Best Integer    Best Bound    ItCnt     Gap

*     0+    0                          382.0000     4202.0000              --- 
      0     0        cutoff            382.0000                     11     --- 

Root node processing (before b&c):
  Real time             =    0.13 sec. (87.95 ticks)
Sequential b&c:
  Real time             =    0.00 sec. (0.00 ticks)
                          ------------
Total (root+branch&cut) =    0.13 sec. (87.95 ticks)
Primal:	382
Dual:	382
Status:	Optimal
Time:	0.15
Sequence:
	8
	1
	4
	6
	9
	1
	8
	3
	9
	9
	1
	9
	5
	4
	3
	9
	1
	0
	1
	4
	1
	4
	3
	0
	4
	4
	1
	0
	9
	4
	7
	0
	5
	9
	10
	0
	10
	4
	4
	11
	0
	9
	6
	9
	4
	9
	7
	9
	0
	4
	9
	1
	4
	9
	9
	7
	9
	9
	1
	9
	5
	0
	11
	9
	1
	9
	1
	4
	1
	9
	9
	4
	5
	9
	9
	9
	5
	4
	1
	9
	7
	9
	4
	9
	1
	0
	6
	4
	9
	7
	4
	9
	4
	1
	0
	6
	4
	1
	9
	6
	4
	9
	0
	9
	9
	6
	9
	9
	1
	0
	4
	7
	9
	1
	4
	0
	5
	9
	5
	4
	1
	0
	4
	6
	9
	1
	4
	7
	0
	5
	9
	9
	6
	9
	4
	1
	9
	6
	0
	5
	9
	9
	9
	9
	1
	4
	6
	0
	1
	4
	4
	9
	5
	4
	9
	6
	9
	5
	4
	0
	5
	4
	0
	7
	4
	9
	9
	1
	4
	0
	9
	5
	4
	9
	6
	9
	4
	7
	0
	6
	4
	0
	1
	4
	7
	9
	9
	9
	1
	9
	0
	6
	4
	0
	1
	4
	4
	0
	6
	9
	7
	4
	9
	1
	9
	5
	9
	9
	6
	9
	5
	4
	1
	9
	1
	9
	7
	4
	1
	9
	5
	4
	1
	4
	5
	9
	7
	4
	9
	1
	4
	6
	9
	4
	4
	1
	9
	9
	1
	4
	1
	9
	5
	4
	1
	9
	6
	4
	9
	7
	4
	9
	5
	4
	9
	4
	7
	9
	1
	9
	4
	4
	1
	9
	6
	4
	9
	1
	9
	4
	4
	9
	7
	9
	1
	4
	4
	9
	4
	5
	9
	6
	4
	1
	9
	5
	9
	4
	6
	9
	4
	1
	9
	6
	9
	4
	4
	9
	5
	4
	1
	4
	5
	9
	5
	4
	9
	1
	9
	1
	4
	5
	9
	1
	4
	4
	1
	9
	1
	4
	4
	9
	9
	1
	4
	6
	9
	4
	4
	9
	4
	6
	9
	1
	9
	4
	9
	1
	4
	6
	9
	4
	4
	1
	4
	6
	9
	4
	1
	4
	4
	9
	9
	1
	9
	4
	4
	9
	9
	4
	6
	9
	9
	9
	9
	9
	9
	6
	9
	9
	9
	9
	9
	9
	9
	9
	9
	9
	9
	9
	9
	9
